NAME: tsp225
TYPE: TOUR
DIMENSION: 225
TOUR_SECTION
30
202
206
31
32
29
28
204
77
78
79
97
96
99
98
100
101
102
103
104
220
105
106
107
108
109
95
209
94
221
93
92
91
90
87
210
84
83
82
85
86
131
211
130
222
129
128
127
126
132
89
88
80
81
217
219
216
76
75
74
73
72
71
70
69
68
67
66
63
62
61
58
59
2
207
49
51
57
56
55
52
53
54
50
47
225
189
205
27
188
190
133
199
191
192
196
193
218
45
48
194
195
46
44
43
6
7
8
9
10
5
4
197
198
3
1
200
42
224
60
64
112
111
110
113
114
115
118
119
186
185
120
184
175
121
122
123
124
125
171
170
169
168
212
150
149
152
148
147
146
153
154
155
156
157
144
145
143
201
142
141
140
139
138
137
163
158
213
162
161
160
159
136
183
135
134
215
164
151
214
167
166
165
172
173
181
174
180
179
176
177
178
182
223
116
117
187
65
35
33
34
26
25
208
36
37
38
39
40
41
24
23
13
14
15
22
16
17
20
21
203
19
18
12
11
EOF
